424 5
10 10 10 10 10 

0 0 0 0 0 0 5 2 14 26 38 50 
0 0 0 0 0 0 3 3 5 7 
10 0 0 0 1 0 2 4 312 
1 0 0 0 3 0 3 10 8 6 
5 0 0 0 4 0 3 10 9 8 
2 0 0 0 2 0 2 12 9 
9 0 0 0 3 0 1 8 
5 0 0 0 4 0 2 12 11 
5 0 0 0 3 0 1 11 
3 0 0 0 1 0 1 11 
10 0 0 0 2 0 1 13 
8 0 0 0 2 0 1 13 
0 0 0 0 0 0 1 62 
0 0 0 0 0 0 3 15 17 19 
1 1 0 0 0 0 2 18 16 
2 2 0 0 0 0 3 24 22 20 
3 2 0 0 0 0 1 18 
5 3 0 0 0 0 2 24 23 
7 4 0 0 0 0 2 24 23 
8 2 0 0 0 0 1 21 
8 2 0 0 0 0 1 23 
1 2 0 0 0 0 2 23 418 
8 2 0 0 0 0 1 25 
2 5 0 0 0 0 1 25 
0 0 0 0 0 0 1 62 
0 0 0 0 0 0 1 27 
4 1 0 0 0 0 3 32 29 28 
2 4 0 0 0 0 2 36 31 
8 3 0 0 0 0 2 30 313 
10 2 0 0 0 0 3 36 34 33 
1 2 0 0 0 0 2 34 33 
5 4 0 0 0 0 2 36 34 
2 4 0 0 0 0 1 35 
6 2 0 0 0 0 1 37 
4 1 0 0 0 0 1 37 
6 2 0 0 0 0 1 37 
0 0 0 0 0 0 1 62 
0 0 0 0 0 0 1 39 
10 0 0 0 0 1 3 48 41 40 
10 0 0 0 0 2 4 47 46 43 316 
4 0 0 0 0 2 2 45 42 
7 0 0 0 0 3 1 43 
8 0 0 0 0 1 1 44 
6 0 0 0 0 3 1 49 
2 0 0 0 0 3 1 49 
3 0 0 0 0 3 1 49 
2 0 0 0 0 4 1 49 
7 0 0 0 0 3 1 49 
0 0 0 0 0 0 1 62 
0 0 0 0 0 0 2 51 53 
6 0 1 0 0 0 1 52 
5 0 4 0 0 0 2 57 54 
7 0 1 0 0 0 2 57 55 
10 0 2 0 0 0 3 60 58 56 
1 0 6 0 0 0 1 56 
7 0 2 0 0 0 1 59 
1 0 3 0 0 0 1 60 
4 0 2 0 0 0 2 59 268 
9 0 1 0 0 0 1 61 
9 0 3 0 0 0 1 61 
0 0 0 0 0 0 1 62 
0 0 0 0 0 0 5 63 75 87 99 111 
0 0 0 0 0 0 3 64 67 73 
4 0 0 0 0 1 2 70 65 
9 0 0 0 0 1 2 69 66 
8 0 0 0 0 3 2 71 68 
3 0 0 0 0 2 2 68 311 
10 0 0 0 0 2 1 72 
5 0 0 0 0 5 1 71 
6 0 0 0 0 2 1 71 
5 0 0 0 0 4 1 74 
4 0 0 0 0 3 1 74 
6 0 0 0 0 2 1 74 
0 0 0 0 0 0 1 123 
0 0 0 0 0 0 3 76 80 85 
6 1 0 0 0 0 2 84 77 
9 2 0 0 0 0 1 78 
6 3 0 0 0 0 3 83 81 79 
2 3 0 0 0 0 1 82 
1 2 0 0 0 0 1 81 
3 3 0 0 0 0 1 86 
4 4 0 0 0 0 1 86 
2 3 0 0 0 0 1 86 
9 2 0 0 0 0 1 86 
3 2 0 0 0 0 1 86 
0 0 0 0 0 0 1 123 
0 0 0 0 0 0 3 88 89 90 
8 0 0 0 1 0 2 95 91 
1 0 0 0 3 0 2 95 91 
6 0 0 0 2 0 1 91 
10 0 0 0 2 0 2 94 92 
2 0 0 0 3 0 1 93 
1 0 0 0 3 0 1 97 
4 0 0 0 4 0 1 96 
1 0 0 0 1 0 1 96 
9 0 0 0 2 0 1 98 
4 0 0 0 4 0 1 98 
0 0 0 0 0 0 1 123 
0 0 0 0 0 0 3 100 101 103 
5 0 1 0 0 0 2 108 102 
5 0 4 0 0 0 3 108 106 104 
2 0 2 0 0 0 2 105 104 
5 0 4 0 0 0 2 105 104 
3 0 3 0 0 0 1 107 
1 0 4 0 0 0 1 106 
4 0 2 0 0 0 1 109 
6 0 2 0 0 0 1 109 
9 0 2 0 0 0 1 109 
10 0 1 0 0 0 1 110 
0 0 0 0 0 0 1 123 
0 0 0 0 0 0 3 112 113 115 
2 0 1 0 0 0 3 119 117 114 
3 0 2 0 0 0 2 117 114 
10 0 3 0 0 0 2 118 116 
7 0 2 0 0 0 2 117 116 
10 0 5 0 0 0 1 120 
5 0 4 0 0 0 1 120 
9 0 1 0 0 0 1 120 
3 0 1 0 0 0 1 120 
1 0 4 0 0 0 1 121 
10 0 2 0 0 0 1 122 
0 0 0 0 0 0 1 123 
0 0 0 0 0 0 5 124 156 188 220 252 
0 0 0 0 0 0 3 125 126 154 
2 0 0 1 1 1 2 153 127 
6 0 0 1 2 5 2 153 127 
2 0 0 6 2 1 2 131 128 
3 0 0 5 4 3 2 135 129 
9 0 0 2 1 1 2 152 130 
7 0 0 1 2 2 2 142 132 
5 0 0 4 2 4 2 135 133 
10 0 0 4 1 2 1 133 
4 0 0 3 1 3 3 146 138 134 
2 0 0 1 2 3 2 143 136 
6 0 0 2 1 2 2 146 136 
7 0 0 2 2 2 1 137 
3 0 0 1 2 1 2 151 139 
2 0 0 1 3 3 2 151 140 
8 0 0 2 1 2 1 140 
9 0 0 1 4 2 3 149 145 141 
6 0 0 4 5 4 3 150 148 144 
10 0 0 1 2 4 2 149 144 
1 0 0 5 2 4 1 144 
9 0 0 2 3 4 1 147 
1 0 0 2 3 1 1 148 
4 0 0 4 3 3 1 151 
5 0 0 1 4 3 1 155 
5 0 0 2 1 2 1 155 
5 0 0 3 5 3 1 155 
9 0 0 2 2 1 1 155 
4 0 0 3 3 2 1 155 
9 0 0 2 4 3 1 155 
9 0 0 3 5 2 1 155 
7 0 0 4 2 2 1 155 
0 0 0 0 0 0 1 424 
0 0 0 0 0 0 3 157 161 186 
7 0 1 0 1 1 2 185 158 
3 0 3 0 2 2 2 183 159 
1 0 2 0 4 1 1 160 
4 0 1 0 1 1 3 182 181 162 
3 0 4 0 1 2 3 184 181 162 
10 0 1 0 2 4 1 163 
6 0 1 0 2 1 3 180 179 164 
7 0 1 0 1 5 2 178 165 
10 0 3 0 2 2 2 177 166 
2 0 1 0 4 4 1 167 
3 0 2 0 4 2 1 168 
8 0 2 0 1 1 2 176 169 
1 0 4 0 3 2 4 175 174 173 170 
2 0 3 0 3 5 1 171 
9 0 5 0 1 2 1 172 
2 0 2 0 4 2 1 187 
8 0 2 0 3 3 1 187 
5 0 5 0 2 6 1 187 
7 0 2 0 3 2 1 187 
10 0 2 0 3 1 1 187 
2 0 1 0 2 1 1 187 
5 0 1 0 2 5 1 187 
10 0 2 0 2 2 1 187 
1 0 1 0 2 4 1 187 
3 0 4 0 4 2 1 187 
1 0 6 0 1 3 1 187 
6 0 4 0 3 1 1 187 
10 0 3 0 4 5 1 187 
6 0 4 0 6 2 1 187 
3 0 2 0 2 1 1 187 
0 0 0 0 0 0 1 424 
0 0 0 0 0 0 3 189 190 218 
6 1 0 1 0 1 2 217 191 
2 3 0 2 0 5 2 217 191 
1 2 0 2 0 3 2 197 192 
1 2 0 2 0 1 2 201 193 
1 3 0 3 0 3 3 216 209 194 
5 2 0 3 0 2 1 195 
10 1 0 3 0 3 2 204 196 
3 4 0 4 0 4 2 215 198 
7 1 0 2 0 2 3 215 201 199 
2 1 0 1 0 2 2 208 199 
8 1 0 2 0 4 1 200 
1 7 0 4 0 4 2 214 202 
6 1 0 1 0 2 1 202 
6 2 0 3 0 2 1 203 
2 5 0 1 0 3 3 213 207 205 
10 2 0 2 0 1 4 213 212 211 206 
8 2 0 2 0 2 3 212 211 206 
8 3 0 3 0 2 1 210 
6 2 0 3 0 1 1 211 
8 5 0 1 0 2 1 210 
4 2 0 5 0 1 1 210 
1 3 0 2 0 2 1 219 
7 1 0 3 0 2 1 219 
1 6 0 2 0 5 1 219 
2 2 0 4 0 4 1 219 
9 4 0 1 0 2 1 219 
10 1 0 4 0 2 1 219 
2 2 0 3 0 3 1 219 
9 1 0 3 0 2 1 219 
2 3 0 3 0 3 1 219 
0 0 0 0 0 0 1 424 
0 0 0 0 0 0 3 221 222 228 
1 1 0 1 0 1 2 232 223 
5 2 0 4 0 2 2 232 223 
5 2 0 3 0 3 2 227 224 
9 2 0 3 0 3 2 230 225 
7 1 0 1 0 2 1 226 
4 2 0 1 0 1 3 236 234 229 
10 2 0 3 0 2 2 236 230 
1 3 0 2 0 1 2 232 231 
9 2 0 1 0 2 1 231 
7 1 0 1 0 3 1 231 
9 1 0 2 0 1 3 241 239 233 
6 2 0 2 0 2 3 241 236 233 
10 3 0 4 0 2 1 235 
8 2 0 3 0 3 1 235 
2 3 0 2 0 6 2 243 237 
4 2 0 1 0 1 1 237 
2 5 0 5 0 2 1 238 
7 1 0 4 0 4 1 240 
6 4 0 3 0 1 1 240 
5 3 0 3 0 4 3 250 245 242 
1 2 0 3 0 2 2 250 242 
10 2 0 4 0 2 4 249 248 246 244 
9 3 0 3 0 6 2 246 244 
1 4 0 2 0 3 1 247 
10 4 0 4 0 3 1 246 
9 3 0 1 0 1 1 251 
7 4 0 1 0 4 1 251 
5 3 0 2 0 2 1 251 
4 3 0 3 0 3 1 251 
8 3 0 3 0 3 1 251 
0 0 0 0 0 0 1 424 
0 0 0 0 0 0 3 253 255 257 
10 0 0 0 1 0 1 254 
1 0 0 0 5 0 2 258 256 
4 0 0 0 2 0 1 256 
6 0 0 0 2 0 3 262 260 259 
10 0 0 0 1 0 3 262 260 259 
9 0 0 0 2 0 2 262 259 
3 0 0 0 3 0 1 261 
8 0 0 0 4 0 1 261 
9 0 0 0 3 0 1 263 
10 0 0 0 2 0 1 263 
0 0 0 0 0 0 5 264 286 308 320 342 
0 0 0 0 0 0 2 265 284 
7 0 1 0 1 0 1 266 
10 0 5 0 1 0 2 270 267 
4 0 2 0 4 0 1 268 
2 0 3 0 1 0 2 278 269 
6 0 3 0 1 0 4 277 275 273 271 
2 0 1 0 2 0 4 277 275 273 271 
3 0 2 0 4 0 1 272 
3 0 2 0 3 0 2 282 274 
3 0 4 0 4 0 2 282 274 
10 0 3 0 2 0 3 281 280 276 
2 0 2 0 3 0 1 276 
9 0 2 0 2 0 1 279 
10 0 2 0 3 0 1 279 
7 0 2 0 2 0 1 283 
5 0 2 0 4 0 1 285 
8 0 4 0 2 0 1 285 
8 0 1 0 1 0 1 285 
7 0 4 0 4 0 1 285 
6 0 1 0 3 0 1 285 
10 0 4 0 3 0 1 285 
0 0 0 0 0 0 1 424 
0 0 0 0 0 0 6 287 302 303 304 305 306 
4 1 0 1 0 0 2 301 288 
7 2 0 3 0 0 2 300 289 
10 1 0 3 0 0 4 299 298 297 290 
6 3 0 2 0 0 1 291 
2 4 0 1 0 0 1 292 
8 2 0 2 0 0 1 293 
4 3 0 5 0 0 1 294 
4 5 0 1 0 0 1 295 
6 3 0 3 0 0 1 296 
7 1 0 3 0 0 1 307 
1 1 0 1 0 0 1 307 
9 3 0 3 0 0 1 307 
6 3 0 1 0 0 1 307 
8 4 0 5 0 0 1 307 
2 1 0 2 0 0 1 307 
10 2 0 3 0 0 1 307 
2 2 0 4 0 0 1 307 
6 4 0 2 0 0 1 307 
9 2 0 2 0 0 1 307 
2 3 0 3 0 0 1 307 
0 0 0 0 0 0 1 424 
0 0 0 0 0 0 3 309 311 315 
10 1 0 0 0 0 2 313 310 
6 3 0 0 0 0 2 317 312 
8 2 0 0 0 0 3 318 317 314 
6 2 0 0 0 0 2 318 314 
6 3 0 0 0 0 2 317 314 
9 4 0 0 0 0 1 316 
2 2 0 0 0 0 1 316 
1 6 0 0 0 0 1 319 
3 1 0 0 0 0 1 319 
1 1 0 0 0 0 1 319 
0 0 0 0 0 0 5 364 376 388 400 412 
0 0 0 0 0 0 3 321 324 328 
6 0 1 1 0 0 2 331 322 
2 0 2 4 0 0 2 339 323 
1 0 3 1 0 0 3 338 329 325 
8 0 3 1 0 0 5 340 338 335 331 330 
10 0 2 3 0 0 2 333 326 
2 0 4 2 0 0 2 335 327 
10 0 5 2 0 0 2 337 330 
5 0 2 4 0 0 2 333 330 
8 0 3 3 0 0 1 330 
3 0 1 2 0 0 1 332 
6 0 1 4 0 0 1 333 
1 0 2 2 0 0 1 334 
8 0 1 1 0 0 1 334 
2 0 3 2 0 0 1 336 
8 0 5 3 0 0 1 337 
2 0 5 4 0 0 1 341 
10 0 2 3 0 0 1 341 
5 0 1 5 0 0 1 341 
1 0 2 1 0 0 1 341 
8 0 2 2 0 0 1 341 
0 0 0 0 0 0 1 424 
0 0 0 0 0 0 1 343 
5 0 1 0 0 1 1 344 
1 0 2 0 0 5 2 346 345 
4 0 1 0 0 5 2 349 347 
2 0 1 0 0 1 1 347 
7 0 2 0 0 1 2 350 348 
3 0 2 0 0 3 4 358 353 352 351 
10 0 4 0 0 3 3 355 351 350 
1 0 2 0 0 3 2 358 354 
2 0 1 0 0 1 1 354 
1 0 3 0 0 3 1 355 
10 0 3 0 0 1 1 354 
9 0 4 0 0 4 2 359 356 
3 0 3 0 0 5 2 359 356 
9 0 2 0 0 2 2 362 357 
9 0 3 0 0 2 2 361 360 
5 0 2 0 0 2 1 359 
8 0 4 0 0 2 1 360 
8 0 4 0 0 1 1 363 
9 0 4 0 0 3 1 363 
4 0 2 0 0 2 1 363 
0 0 0 0 0 0 1 424 
0 0 0 0 0 0 2 365 367 
2 1 0 0 0 0 2 369 366 
7 2 0 0 0 0 2 371 368 
2 1 0 0 0 0 1 368 
4 1 0 0 0 0 2 372 370 
1 2 0 0 0 0 1 370 
8 3 0 0 0 0 2 374 373 
2 3 0 0 0 0 2 374 373 
1 5 0 0 0 0 1 373 
5 3 0 0 0 0 1 375 
4 4 0 0 0 0 1 375 
0 0 0 0 0 0 1 424 
0 0 0 0 0 0 2 377 378 
3 0 1 0 0 0 1 379 
8 0 2 0 0 0 1 379 
3 0 3 0 0 0 1 380 
5 0 3 0 0 0 3 383 382 381 
3 0 3 0 0 0 3 386 385 384 
10 0 2 0 0 0 3 386 385 384 
8 0 3 0 0 0 3 386 385 384 
2 0 2 0 0 0 1 387 
1 0 3 0 0 0 1 387 
2 0 3 0 0 0 1 387 
0 0 0 0 0 0 1 424 
0 0 0 0 0 0 3 389 390 391 
2 1 0 0 0 0 3 398 395 392 
6 3 0 0 0 0 3 397 395 393 
5 4 0 0 0 0 1 392 
7 1 0 0 0 0 2 397 393 
9 3 0 0 0 0 1 394 
2 1 0 0 0 0 1 396 
7 3 0 0 0 0 1 396 
10 2 0 0 0 0 1 399 
2 2 0 0 0 0 1 399 
5 5 0 0 0 0 1 399 
0 0 0 0 0 0 1 424 
0 0 0 0 0 0 3 401 402 407 
3 0 1 0 0 0 1 403 
10 0 2 0 0 0 1 403 
9 0 3 0 0 0 2 405 404 
8 0 1 0 0 0 3 410 408 406 
3 0 3 0 0 0 2 409 408 
3 0 2 0 0 0 1 409 
9 0 4 0 0 0 1 408 
7 0 3 0 0 0 1 411 
1 0 3 0 0 0 1 411 
5 0 3 0 0 0 1 411 
0 0 0 0 0 0 1 424 
0 0 0 0 0 0 4 413 414 418 422 
8 0 1 0 0 0 3 421 420 415 
4 0 3 0 0 0 2 420 417 
6 0 3 0 0 0 1 416 
1 0 4 0 0 0 1 417 
5 0 2 0 0 0 1 419 
10 0 4 0 0 0 1 419 
6 0 1 0 0 0 1 423 
5 0 1 0 0 0 1 423 
3 0 2 0 0 0 1 423 
5 0 4 0 0 0 1 423 
0 0 0 0 0 0 1 424 
0 0 0 0 0 0 0 
